p cnf 69 230
-4 2 0
-4 -3 0
-2 3 4 0
5 1 0
5 -4 0
-1 4 -5 0
8 -6 0
8 7 0
6 -7 -8 0
10 -8 0
10 9 0
8 -9 -10 0
11 -5 0
11 -10 0
5 10 -11 0
13 12 0
13 -10 0
-12 10 -13 0
13 5 -14 0
-13 -5 -14 0
13 -5 14 0
-13 5 14 0
3 16 -17 0
-3 -16 -17 0
3 -16 17 0
-3 16 17 0
-18 15 0
-18 17 0
-15 -17 18 0
-19 18 0
-19 -7 0
-18 7 19 0
-14 -19 -20 0
14 19 -20 0
-14 19 20 0
14 -19 20 0
11 20 -21 0
-11 -20 -21 0
11 -20 21 0
-11 20 21 0
-23 -7 0
-23 22 0
7 -22 23 0
7 -24 -25 0
-7 24 -25 0
7 24 25 0
-7 -24 25 0
23 -25 -26 0
-23 25 -26 0
23 25 26 0
-23 -25 26 0
-2 26 -27 0
2 -26 -27 0
-2 -26 27 0
2 26 27 0
-27 28 -29 0
27 -28 -29 0
-27 -28 29 0
27 28 29 0
30 -6 0
30 -27 0
6 27 -30 0
32 -10 0
32 31 0
10 -31 -32 0
-33 30 0
-33 -32 0
-30 32 33 0
-7 -26 -34 0
7 26 -34 0
-7 26 34 0
7 -26 34 0
15 -34 -35 0
-15 34 -35 0
15 34 35 0
-15 -34 35 0
36 -4 0
36 35 0
4 -35 -36 0
9 15 -37 0
-9 -15 -37 0
9 -15 37 0
-9 15 37 0
38 -37 0
38 -13 0
37 13 -38 0
39 36 0
39 -38 0
-36 38 -39 0
-33 39 -40 0
33 -39 -40 0
-33 -39 40 0
33 39 40 0
-29 40 -41 0
29 -40 -41 0
-29 -40 41 0
29 40 41 0
42 -21 0
42 -41 0
21 41 -42 0
27 -23 -43 0
-27 23 -43 0
27 23 43 0
-27 -23 43 0
44 -25 0
44 -26 0
25 26 -44 0
45 44 0
45 -37 0
-44 37 -45 0
-45 -28 -46 0
45 28 -46 0
-45 28 46 0
45 -28 46 0
-43 -46 -47 0
43 46 -47 0
-43 46 47 0
43 -46 47 0
-25 10 -48 0
25 -10 -48 0
-25 -10 48 0
25 10 48 0
-49 47 0
-49 -48 0
-47 48 49 0
50 -24 -51 0
-50 24 -51 0
50 24 51 0
-50 -24 51 0
-52 -44 0
-52 24 0
44 -24 52 0
27 3 -53 0
-27 -3 -53 0
27 -3 53 0
-27 3 53 0
-53 -28 -54 0
53 28 -54 0
-53 28 54 0
53 -28 54 0
-45 54 -55 0
45 -54 -55 0
-45 -54 55 0
45 54 55 0
-34 -1 -56 0
34 1 -56 0
-34 1 56 0
34 -1 56 0
-57 55 0
-57 56 0
-55 -56 57 0
58 -52 0
58 -57 0
52 57 -58 0
59 -51 0
59 -58 0
51 58 -59 0
-60 -24 0
-60 2 0
24 -2 60 0
-61 59 0
-61 -60 0
-59 60 61 0
-13 23 -62 0
13 -23 -62 0
-13 -23 62 0
13 23 62 0
-63 -35 0
-63 -45 0
35 45 63 0
-64 -62 0
-64 63 0
62 -63 64 0
65 54 0
65 -23 0
-54 23 -65 0
-66 -64 0
-66 -65 0
64 65 66 0
61 -66 -67 0
-61 66 -67 0
61 66 67 0
-61 -66 67 0
-49 67 -68 0
49 -67 -68 0
-49 -67 68 0
49 67 68 0
-42 68 -69 0
42 -68 -69 0
-42 -68 69 0
42 68 69 0
-14 -3 -67 55 -65 62 0
-47 -20 0
32 -47 -59 0
-6 -8 -38 0
48 44 66 0
57 -31 69 -48 0
-52 37 4 30 0
-26 63 -18 0
47 -69 59 0
29 -46 -63 58 -23 -40 0
-17 -46 39 54 -28 0
51 -17 -53 0
-9 -1 64 -31 0
7 3 -42 -30 -22 0
-16 59 42 35 -22 0
45 -50 -20 -34 0
11 -48 42 0
46 -60 0
1 -60 -7 32 -48 59 0
38 -66 -10 0
-56 15 25 0
-37 -16 0
33 -12 0
28 -22 24 60 0
24 -3 0
-57 -27 -56 -55 -67 0
-24 49 0
-32 11 -46 41 -26 6 0
-6 42 -39 0
-40 63 18 0
1 -21 46 6 0
-56 21 62 0
-29 26 -37 0
-22 -20 -47 -43 -63 0
40 39 -17 66 -9 46 0
-4 -60 67 0
67 30 14 20 -61 0
-11 -49 64 39 50 0
69 0
